tsp_instances/TSP20/instance22.tsp
NODE_COORD_SECTION
0 17 187
1 200 185
2 29 171
3 86 58
4 39 200
5 108 158
6 112 83
7 99 55
8 48 6
9 126 59
10 55 124
11 131 127
12 100 112
13 98 111
14 113 100
15 54 72
16 119 34
17 57 116
18 197 32
19 91 127
