tsp_instances/TSP20/instance22.opt.tour
TOUR_SECTION
1
3
11
18
16
9
4
8
17
19
10
7
15
13
14
20
12
2
6
5
-1